     Program PWSCF v.7.1 starts on 14Aug2023 at 17:37:50

     Waiting for input...
     Reading input from standard input
Warning: card  &CELL ignored
Warning: card  / ignored

     Current dimensions of program PWSCF are:
     Max number of different atomic species (ntypx) = 10
     Max number of k-points (npk) =  40000
     Max angular momentum in pseudopotentials (lmaxx) =  4
     file Nb.pbe-spn-kjpaw_psl.0.3.0.UPF: wavefunction(s)  4S 4P renormalized
     file O.pbe-n-kjpaw_psl.0.1.UPF: wavefunction(s)  2P renormalized
     file C.pbe-n-kjpaw_psl.1.0.0.UPF: wavefunction(s)  2S 2P renormalized
     Message from routine setup:
     using ibrav=0 with symmetry is DISCOURAGED, use correct ibrav instead

     R & G space division:  proc/nbgrp/npool/nimage =       4
     Subspace diagonalization in iterative solution of the eigenvalue problem:
     one sub-group per band group will be used

     Using Slab Decomposition

     Title:
     Si8

     bravais-lattice index     =            0
     lattice parameter (alat)  =      15.1572  a.u.
     unit-cell volume          =    7637.8593 (a.u.)^3
     number of atoms/cell      =           64
     number of atomic types    =            3
     number of electrons       =       576.00
     number of Kohn-Sham states=          346
     kinetic-energy cutoff     =      80.0000  Ry
     charge density cutoff     =     320.0000  Ry
     scf convergence threshold =      1.0E-06
     mixing beta               =       0.7000
     number of iterations used =            8  plain     mixing
     energy convergence thresh.=      1.0E-04
     force convergence thresh. =      1.0E-03
     Exchange-correlation= SLA  PW   PBX  PBC
                           (   1   4   3   4   0   0   0)
     nstep                     =           10

     celldm(1)=  15.157151  celldm(2)=   0.000000  celldm(3)=   0.000000
     celldm(4)=   0.000000  celldm(5)=   0.000000  celldm(6)=   0.000000

     crystal axes: (cart. coord. in units of alat)
               a(1) = (   1.000000   0.000000   0.000000 )
               a(2) = (   0.000000   1.000000   0.000000 )
               a(3) = (   0.000000   0.000000   2.193405 )

     reciprocal axes: (cart. coord. in units 2 pi/alat)
               b(1) = (  1.000000  0.000000  0.000000 )
               b(2) = ( -0.000000  1.000000  0.000000 )
               b(3) = ( -0.000000 -0.000000  0.455912 )

     PseudoPot. # 1 for Nb read from file:
     /home/im0225/cryspy/nb/pseudo/Nb.pbe-spn-kjpaw_psl.0.3.0.UPF
     MD5 check sum: 411d72ad547312f8017e2943ceca08cc
     Pseudo is Projector augmented-wave + core cor, Zval = 13.0
     Generated using "atomic" code by A. Dal Corso  v.5.0.99 svn rev. 10869
     Shape of augmentation charge: PSQ
     Using radial grid of 1227 points,  6 beta functions with:
                l(1) =   0
                l(2) =   0
                l(3) =   1
                l(4) =   1
                l(5) =   2
                l(6) =   2
     Q(r) pseudized with 0 coefficients

     PseudoPot. # 2 for O  read from file:
     /home/im0225/cryspy/nb/pseudo/O.pbe-n-kjpaw_psl.0.1.UPF
     MD5 check sum: 0234752ac141de4415c5fc33072bef88
     Pseudo is Projector augmented-wave + core cor, Zval =  6.0
     Generated using "atomic" code by A. Dal Corso  v.5.0.99 svn rev. 10869
     Shape of augmentation charge: BESSEL
     Using radial grid of 1095 points,  4 beta functions with:
                l(1) =   0
                l(2) =   0
                l(3) =   1
                l(4) =   1
     Q(r) pseudized with 0 coefficients

     PseudoPot. # 3 for C  read from file:
     /home/im0225/cryspy/nb/pseudo/C.pbe-n-kjpaw_psl.1.0.0.UPF
     MD5 check sum: 5d2aebdfa2cae82b50a7e79e9516da0f
     Pseudo is Projector augmented-wave + core cor, Zval =  4.0
     Generated using "atomic" code by A. Dal Corso  v.5.1
     Shape of augmentation charge: PSQ
     Using radial grid of 1073 points,  4 beta functions with:
                l(1) =   0
                l(2) =   0
                l(3) =   1
                l(4) =   1
     Q(r) pseudized with 0 coefficients

     atomic species   valence    mass     pseudopotential
        Nb            13.00    92.90600     Nb( 1.00)
        O              6.00    15.99900     O ( 1.00)
        C              4.00    12.01100     C ( 1.00)

      8 Sym. Ops. (no inversion) found ( 4 have fractional translation)

   Cartesian axes

     site n.     atom                  positions (alat units)
         1           Nb  tau(   1) = (   0.5000000   0.5000000   0.0000000  )
         2           Nb  tau(   2) = (   0.5000000   0.5000000   1.0967026  )
         3           Nb  tau(   3) = (   0.9812835   0.6955480   0.3183360  )
         4           Nb  tau(   4) = (  -0.9812835  -0.6955480   0.3183360  )
         5           Nb  tau(   5) = (  -0.6955480   0.9812835   1.4150386  )
         6           Nb  tau(   6) = (   0.6955480  -0.9812835   1.4150386  )
         7           Nb  tau(   7) = (  -0.9812835   0.6955480  -0.3183360  )
         8           Nb  tau(   8) = (   0.9812835  -0.6955480  -0.3183360  )
         9           Nb  tau(   9) = (   0.6955480   0.9812835   0.7783667  )
        10           Nb  tau(  10) = (  -0.6955480  -0.9812835   0.7783667  )
        11           Nb  tau(  11) = (   0.3998291   0.3251121   0.9481221  )
        12           Nb  tau(  12) = (   0.6001709   0.6748879   0.9481221  )
        13           Nb  tau(  13) = (   0.6748879   0.3998291   2.0448247  )
        14           Nb  tau(  14) = (   0.3251121   0.6001709   2.0448247  )
        15           Nb  tau(  15) = (   0.6001709   0.3251121   1.2452832  )
        16           Nb  tau(  16) = (   0.3998291   0.6748879   1.2452832  )
        17           Nb  tau(  17) = (   0.3251121   0.3998291   0.1485806  )
        18           Nb  tau(  18) = (   0.6748879   0.6001709   0.1485806  )
        19           Nb  tau(  19) = (   0.5844013   0.4108849   1.5094479  )
        20           Nb  tau(  20) = (   0.4155987   0.5891151   1.5094479  )
        21           Nb  tau(  21) = (   0.5891151   0.5844013   0.4127453  )
        22           Nb  tau(  22) = (   0.4108849   0.4155987   0.4127453  )
        23           Nb  tau(  23) = (   0.4155987   0.4108849   0.6839574  )
        24           Nb  tau(  24) = (   0.5844013   0.5891151   0.6839574  )
        25           Nb  tau(  25) = (   0.4108849   0.5844013   1.7806600  )
        26           Nb  tau(  26) = (   0.5891151   0.4155987   1.7806600  )
        27           Nb  tau(  27) = (   0.0000000   0.5000000   0.0000000  )
        28           Nb  tau(  28) = (   0.5000000   0.0000000   1.0967026  )
        29           Nb  tau(  29) = (   0.8811057   0.5000000   1.0967026  )
        30           Nb  tau(  30) = (   0.1188943   0.5000000   1.0967026  )
        31           Nb  tau(  31) = (   0.5000000   0.8811057   0.0000000  )
        32           Nb  tau(  32) = (   0.5000000   0.1188943   0.0000000  )
        33           C   tau(  33) = (   0.1725071   0.6422576   0.2546057  )
        34           C   tau(  34) = (   0.8274929   0.3577424   0.2546057  )
        35           C   tau(  35) = (   0.3577424   0.1725071   1.3513084  )
        36           C   tau(  36) = (   0.6422576   0.8274929   1.3513084  )
        37           C   tau(  37) = (   0.8274929   0.6422576   1.9387996  )
        38           C   tau(  38) = (   0.1725071   0.3577424   1.9387996  )
        39           C   tau(  39) = (   0.6422576   0.1725071   0.8420969  )
        40           C   tau(  40) = (   0.3577424   0.8274929   0.8420969  )
        41           C   tau(  41) = (   0.0000000   0.0000000   0.0000000  )
        42           C   tau(  42) = (   0.0000000   0.0000000   1.0967026  )
        43           C   tau(  43) = (   0.5000000   0.5000000   0.5483513  )
        44           C   tau(  44) = (   0.5000000   0.5000000   1.6450540  )
        45           C   tau(  45) = (   0.0000000   0.0000000   1.9282410  )
        46           C   tau(  46) = (   0.0000000   0.0000000   0.8315384  )
        47           C   tau(  47) = (   0.0000000   0.0000000   0.2651642  )
        48           C   tau(  48) = (   0.0000000   0.0000000   1.3618669  )
        49           O   tau(  49) = (   0.9547876   0.6453706   0.6423018  )
        50           O   tau(  50) = (   0.0452124   0.3546294   0.6423018  )
        51           O   tau(  51) = (   0.3546294   0.9547876   1.7390044  )
        52           O   tau(  52) = (   0.6453706   0.0452124   1.7390044  )
        53           O   tau(  53) = (   0.0452124   0.6453706   1.5511035  )
        54           O   tau(  54) = (   0.9547876   0.3546294   1.5511035  )
        55           O   tau(  55) = (   0.6453706   0.9547876   0.4544009  )
        56           O   tau(  56) = (   0.3546294   0.0452124   0.4544009  )
        57           O   tau(  57) = (   0.0000000   0.5000000   1.7994291  )
        58           O   tau(  58) = (   0.5000000   0.0000000   0.7027264  )
        59           O   tau(  59) = (   0.0000000   0.5000000   0.3939762  )
        60           O   tau(  60) = (   0.5000000   0.0000000   1.4906789  )
        61           O   tau(  61) = (   0.0000000   0.5000000   0.5024603  )
        62           O   tau(  62) = (   0.5000000   0.0000000   1.5991630  )
        63           O   tau(  63) = (   0.0000000   0.5000000   1.6909449  )
        64           O   tau(  64) = (   0.5000000   0.0000000   0.5942423  )

     number of k points=     3  Gaussian smearing, width (Ry)=  0.0100
                       cart. coord. in units 2pi/alat
        k(    1) = (   0.0000000   0.0000000   0.0000000), wk =   0.5000000
        k(    2) = (   0.0000000  -0.5000000   0.0000000), wk =   1.0000000
        k(    3) = (  -0.5000000  -0.5000000   0.0000000), wk =   0.5000000

     Check: negative core charge=   -0.000006

     Initial potential from superposition of free atoms

     starting charge     575.9314, renormalised to     576.0000
     Starting wfcs are  448 randomized atomic wfcs
     Checking if some PAW data can be deallocated...

     Self-consistent Calculation

     iteration #  1     ecut=    80.00 Ry     beta= 0.70
     Davidson diagonalization with overlap
     ethr =  1.00E-02,  avg # of iterations =  3.0

     total energy              =  -11604.04320166 Ry
     estimated scf accuracy    <      44.87292102 Ry

[...]

     iteration # 14     ecut=    80.00 Ry     beta= 0.70
     Davidson diagonalization with overlap
     c_bands:  1 eigenvalues not converged
     ethr =  8.86E-07,  avg # of iterations = 15.0

[...]

     End of self-consistent calculation

          k = 0.0000 0.0000 0.0000 ( 92327 PWs)   bands (ev):

   -47.0873 -47.0453 -46.7409 -46.6314 -46.1372 -46.0295 -45.9109 -45.9107
   -45.5182 -45.5182 -45.4099 -45.4099 -45.3890 -45.3883 -45.3794 -45.3793
   -45.3134 -45.3134 -45.2980 -45.2980 -45.2702 -45.2702 -45.1890 -45.1397
   -44.7509 -44.7509 -43.7742 -43.7647 -43.7330 -43.7330 -43.7169 -43.7169
   -33.7145 -33.7145 -33.7145 -33.7145 -26.6829 -26.6732 -25.6303 -25.6298
   -25.6298 -25.5885 -24.8139 -24.7694 -24.6805 -24.6805 -24.3981 -24.3845
[...]
C             0.0000000000        0.0000000000        0.1205390052
C             0.0000000000        0.0000000000        0.6205390052
O             0.9541883887        0.6466230667        0.2928503028
O             0.0458116113        0.3533769333        0.2928503028
O             0.3533769333        0.9541883887        0.7928503028
O             0.6466230667        0.0458116113        0.7928503028
O             0.0458116113        0.6466230667        0.7071496972
O             0.9541883887        0.3533769333        0.7071496972
O             0.6466230667        0.9541883887        0.2071496972
O             0.3533769333        0.0458116113        0.2071496972
O            -0.0000000000        0.5000000000        0.8330314047
O             0.5000000000       -0.0000000000        0.3330314047
O             0.0000000000        0.5000000000        0.1669685953
O             0.5000000000        0.0000000000        0.6669685953
O            -0.0000000000        0.5000000000        0.2441172462
O             0.5000000000       -0.0000000000        0.7441172462
O             0.0000000000        0.5000000000        0.7558827538
O             0.5000000000        0.0000000000        0.2558827538

     Writing config-only to output data dir ./out.d/pwscf.save/
     NEW-OLD atomic charge density approx. for the potential

[...]

     Total force =     3.872337     Total SCF correction =     0.003295
     Energy error            =      7.1E+00 Ry
     Gradient error          =      6.7E-01 Ry/Bohr

[...]

     energy             old  =  -11634.0872188396 Ry
     energy             new  =  -11641.1763100321 Ry

     CASE: energy            _new < energy            _old

[...]

     WARNING: bfgs curvature condition failed, Theta= 0.985
     new trust radius        =       0.2991779087 bohr
     new conv_thr            =       0.0000010000 Ry

[...]

     new trust radius        =       0.5409222797 bohr
     new conv_thr            =       0.0000010000 Ry

[...]

     Self-consistent Calculation

     iteration #  1     ecut=    80.00 Ry     beta= 0.70
     Davidson diagonalization with overlap
     c_bands:  1 eigenvalues not converged
     c_bands:  2 eigenvalues not converged
     ethr =  1.00E-06,  avg # of iterations = 39.0

[...]

     total energy              =  -11652.86617075 Ry
     estimated scf accuracy    <       0.00000432 Ry

     iteration # 21     ecut=    80.00 Ry     beta= 0.70
     Davidson diagonalization with overlap
     ethr =  7.51E-10,  avg # of iterations =  1.3

     End of self-consistent calculation

[...]

          k = 0.0000-0.5000 0.0000 ( 92204 PWs)   bands (ev):

[...]

          k =-0.5000-0.5000 0.0000 ( 92268 PWs)   bands (ev):

   -45.6441 -45.6441 -45.6427 -45.6427 -45.6099 -45.6099 -45.6088 -45.6088
   -45.5194 -45.5192 -45.5192 -45.5191 -45.5190 -45.5190 -45.5184 -45.5184
   -45.0727 -45.0727 -44.7661 -44.7661 -44.6024 -44.6024 -44.5001 -44.5001
   -44.4913 -44.4913 -44.4518 -44.4518 -44.2602 -44.2602 -44.0748 -44.0748
   -22.0006 -21.9980 -21.8933 -21.8933 -21.8789 -21.8710 -21.8651 -21.8577
   -21.8577 -21.8542 -21.8013 -21.8013 -21.7861 -21.7856 -21.7478 -21.7478
   -21.7384 -21.7372 -21.7366 -21.7311 -21.7311 -21.7233 -21.7127 -21.7127
   -21.7026 -21.7026 -21.7012 -21.6981 -21.6979 -21.6934 -21.6810 -21.6810
   -21.6516 -21.6415 -21.6415 -21.6370 -21.6055 -21.6055 -21.6004 -21.5981
   -21.5293 -21.5293 -21.5290 -21.5184 -21.5143 -21.5091 -21.5085 -21.5000
   -21.5000 -21.4689 -21.3979 -21.3979 -21.3629 -21.3407 -21.3376 -21.3376
   -21.2367 -21.2323 -21.1261 -21.1261 -20.9876 -20.9876 -20.9744 -20.9744
   -20.8817 -20.8809 -20.6400 -20.6400 -20.6185 -20.6163 -20.5706 -20.5704
   -20.5457 -20.5457 -20.5268 -20.5268 -20.4990 -20.4979 -20.4377 -20.4377
   -20.4066 -20.4066 -20.3609 -20.3606 -20.2609 -20.2585 -20.1290 -20.1290
   -20.0081 -20.0081 -19.7383 -19.7371 -19.6952 -19.6945 -19.1945 -19.1945
   -12.5110 -12.5110 -12.5079 -12.5079  -8.3747  -8.3743  -8.3520  -8.3520
    -7.0373  -7.0373  -7.0257  -7.0252  -5.4953  -5.4953  -5.4696  -5.4696
    -4.9417  -4.9415  -1.9846  -1.9843   0.0690   0.0690   0.3138   0.3390
     0.3979   0.4685   0.5056   0.5056   0.6843   0.7272   2.9259   2.9259
     2.9738   2.9738   3.0614   3.1854   3.3181   3.4835   3.9400   4.0102
     4.0124   4.0928   4.4446   4.5925   4.5925   4.5970   4.8952   4.8960
     4.8960   4.9619   5.0220   5.2614   5.2614   5.3437   5.3722   5.3722
     5.4665   5.5986   5.5986   5.6020   5.6736   5.8715   5.9384   5.9384
     6.0638   6.0681   6.1559   6.2080   6.3070   6.3070   6.3777   6.3777
     6.4399   6.4591   6.4591   6.4625   6.7256   6.7341   6.7341   6.8150
     6.8743   6.8893   6.9537   6.9618   6.9618   7.0298   7.0298   7.0762
     7.1133   7.1197   7.2182   7.2182   7.3681   7.3905   7.4232   7.4232
     7.5598   7.6160   7.6160   7.6958   7.7209   7.7361   7.7703   7.7703
     7.9699   7.9699   7.9838   7.9839   8.0476   8.0476   8.1404   8.2364
     8.2569   8.2618   8.2618   8.3290   8.3290   8.4055   8.4055   8.4596
     8.5054   8.5592   8.5702   8.5887   8.6577   8.8493   8.8493   8.8668
     8.9662   8.9976   9.1329   9.1329   9.1608   9.2021   9.2581   9.2843
     9.2843   9.3073   9.3863   9.4150   9.5239   9.5310   9.5310   9.5541
     9.6018   9.6411   9.7387   9.7387   9.7802   9.7890   9.8413   9.8524
     9.8524   9.9128   9.9590   9.9590   9.9974   9.9974  10.0143  10.1624
    10.1648  10.1707  10.1707  10.1860  10.2808  10.2808  10.4102  10.4268
    10.4465  10.4465  10.4534  10.4779  10.5840  10.7380  10.7380  10.7437
    10.8037  10.8037  10.8409  10.8780  10.8780  10.8918  10.9244  10.9244
    10.9678  11.0344  11.0344  11.0626  11.1029  11.1099  11.1124  11.1550
    11.2927  11.3684  11.3717  11.4166  11.4483  11.4483  11.5098  11.5098
    11.5528  11.6646  11.6849  11.6849  11.6920  11.7689  11.7831  11.7831
    11.8321  11.8321  11.8815  11.9329  11.9394  11.9910  11.9910  12.0461
    12.0695  12.0696

     the Fermi energy is    10.1175 ev

!    total energy              =  -11652.86617087 Ry
     total all-electron energy =   -248101.265253 Ry
     estimated scf accuracy    <       0.00000027 Ry
     smearing contrib. (-TS)   =      -0.03527154 Ry
     internal energy E=F+TS    =  -11652.83089933 Ry

     The total energy is F=E-TS. E is the sum of the following terms:
     one-electron contribution =   -1855.07443485 Ry
     hartree contribution      =    1182.61585498 Ry
     xc contribution           =   -1109.99971017 Ry
     ewald contribution        =   -2947.49266767 Ry
     one-center paw contrib.   =   -6922.87994162 Ry

     convergence has been achieved in  21 iterations

     Forces acting on atoms (cartesian axes, Ry/au):

     atom    1 type  1   force =     0.00000000    0.00000000    0.00000000
     atom    2 type  1   force =     0.00000000    0.00000000    0.00000000
     atom    3 type  1   force =    -0.01720992   -0.03978154   -0.00621175
     atom    4 type  1   force =     0.01720992    0.03978154   -0.00621175
     atom    5 type  1   force =     0.03978154   -0.01720992   -0.00621175
     atom    6 type  1   force =    -0.03978154    0.01720992   -0.00621175
     atom    7 type  1   force =     0.01720992   -0.03978154    0.00621175
     atom    8 type  1   force =    -0.01720992    0.03978154    0.00621175
     atom    9 type  1   force =    -0.03978154   -0.01720992    0.00621175
     atom   10 type  1   force =     0.03978154    0.01720992    0.00621175
     atom   11 type  1   force =    -0.02633938    0.05310856    0.00758695
     atom   12 type  1   force =     0.02633938   -0.05310856    0.00758695
     atom   13 type  1   force =    -0.05310856   -0.02633938    0.00758695
     atom   14 type  1   force =     0.05310856    0.02633938    0.00758695
     atom   15 type  1   force =     0.02633938    0.05310856   -0.00758695
     atom   16 type  1   force =    -0.02633938   -0.05310856   -0.00758695
     atom   17 type  1   force =     0.05310856   -0.02633938   -0.00758695
     atom   18 type  1   force =    -0.05310856    0.02633938   -0.00758695
     atom   19 type  1   force =     0.06383465   -0.03908725    0.05489106
     atom   20 type  1   force =    -0.06383465    0.03908725    0.05489106
     atom   21 type  1   force =     0.03908725    0.06383465    0.05489106
     atom   22 type  1   force =    -0.03908725   -0.06383465    0.05489106
     atom   23 type  1   force =    -0.06383465   -0.03908725   -0.05489106
     atom   24 type  1   force =     0.06383465    0.03908725   -0.05489106
     atom   25 type  1   force =    -0.03908725    0.06383465   -0.05489106
     atom   26 type  1   force =     0.03908725   -0.06383465   -0.05489106
     atom   27 type  1   force =     0.00000000    0.00000000    0.00000000
     atom   28 type  1   force =     0.00000000    0.00000000    0.00000000
     atom   29 type  1   force =    -0.03883543    0.00000000    0.00000000
     atom   30 type  1   force =     0.03883543   -0.00000000   -0.00000000
     atom   31 type  1   force =     0.00000000   -0.03883543    0.00000000
     atom   32 type  1   force =    -0.00000000    0.03883543   -0.00000000
     atom   33 type  3   force =     0.02157787   -0.00896809   -0.04279036
     atom   34 type  3   force =    -0.02157787    0.00896809   -0.04279036
     atom   35 type  3   force =     0.00896809    0.02157787   -0.04279036
     atom   36 type  3   force =    -0.00896809   -0.02157787   -0.04279036
     atom   37 type  3   force =    -0.02157787   -0.00896809    0.04279036
     atom   38 type  3   force =     0.02157787    0.00896809    0.04279036
     atom   39 type  3   force =    -0.00896809    0.02157787    0.04279036
     atom   40 type  3   force =     0.00896809   -0.02157787    0.04279036
     atom   41 type  3   force =     0.00000000    0.00000000    0.00000000
     atom   42 type  3   force =     0.00000000    0.00000000    0.00000000
     atom   43 type  3   force =     0.00000000    0.00000000    0.00000000
     atom   44 type  3   force =     0.00000000    0.00000000    0.00000000
     atom   45 type  3   force =    -0.00000000   -0.00000000    0.13360771
     atom   46 type  3   force =    -0.00000000   -0.00000000    0.13360771
     atom   47 type  3   force =     0.00000000    0.00000000   -0.13360771
     atom   48 type  3   force =     0.00000000    0.00000000   -0.13360771
     atom   49 type  2   force =    -0.04926847   -0.04237595    0.12237234
     atom   50 type  2   force =     0.04926847    0.04237595    0.12237234
     atom   51 type  2   force =     0.04237595   -0.04926847    0.12237234
     atom   52 type  2   force =    -0.04237595    0.04926847    0.12237234
     atom   53 type  2   force =     0.04926847   -0.04237595   -0.12237234
     atom   54 type  2   force =    -0.04926847    0.04237595   -0.12237234
     atom   55 type  2   force =    -0.04237595   -0.04926847   -0.12237234
     atom   56 type  2   force =     0.04237595    0.04926847   -0.12237234
     atom   57 type  2   force =     0.00000000    0.00000000   -0.02043877
     atom   58 type  2   force =     0.00000000    0.00000000   -0.02043877
     atom   59 type  2   force =    -0.00000000   -0.00000000    0.02043877
     atom   60 type  2   force =    -0.00000000   -0.00000000    0.02043877
     atom   61 type  2   force =    -0.00000000   -0.00000000    0.04896743
     atom   62 type  2   force =    -0.00000000   -0.00000000    0.04896743
     atom   63 type  2   force =     0.00000000    0.00000000   -0.04896743
     atom   64 type  2   force =     0.00000000    0.00000000   -0.04896743

     Total force =     0.611669     Total SCF correction =     0.001696
     Energy error            =      7.7E-01 Ry
     Gradient error          =      1.3E-01 Ry/Bohr

     number of scf cycles    =  10
     number of bfgs steps    =   9

     energy             old  =  -11652.0966816542 Ry
     energy             new  =  -11652.8661708697 Ry

     CASE: energy            _new < energy            _old

     new trust radius        =       0.1740430367 bohr

     The maximum number of steps has been reached.

     End of BFGS Geometry Optimization

ATOMIC_POSITIONS (crystal)
Nb            0.5000000000        0.5000000000       -0.0000000000
Nb            0.5000000000        0.5000000000        0.5000000000
Nb            1.0190935433        0.7583832937        0.1454044543
Nb           -1.0190935433       -0.7583832937        0.1454044543
Nb           -0.7583832937        1.0190935433        0.6454044543
Nb            0.7583832937       -1.0190935433        0.6454044543
Nb           -1.0190935433        0.7583832937       -0.1454044543
Nb            1.0190935433       -0.7583832937       -0.1454044543
Nb            0.7583832937        1.0190935433        0.3545955457
Nb           -0.7583832937       -1.0190935433        0.3545955457
Nb            0.3059908222        0.2247011755        0.4574911796
Nb            0.6940091778        0.7752988245        0.4574911796
Nb            0.7752988245        0.3059908222        0.9574911796
Nb            0.2247011755        0.6940091778        0.9574911796
Nb            0.6940091778        0.2247011755        0.5425088204
Nb            0.3059908222        0.7752988245        0.5425088204
Nb            0.2247011755        0.3059908222        0.0425088204
Nb            0.7752988245        0.6940091778        0.0425088204
Nb            0.7260829114        0.4103300471        0.6779771781
Nb            0.2739170886        0.5896699529        0.6779771781
Nb            0.5896699529        0.7260829114        0.1779771781
Nb            0.4103300471        0.2739170886        0.1779771781
Nb            0.2739170886        0.4103300471        0.3220228219
Nb            0.7260829114        0.5896699529        0.3220228219
Nb            0.4103300471        0.7260829114        0.8220228219
Nb            0.5896699529        0.2739170886        0.8220228219
Nb            0.0000000000        0.5000000000        0.0000000000
Nb            0.5000000000        0.0000000000        0.5000000000
Nb            0.8536271099        0.5000000000        0.5000000000
Nb            0.1463728901        0.5000000000        0.5000000000
Nb            0.5000000000        0.8536271099        0.0000000000
Nb            0.5000000000        0.1463728901       -0.0000000000
C             0.1958983915        0.5967791310        0.0828318573
C             0.8041016085        0.4032208690        0.0828318573
C             0.4032208690        0.1958983915        0.5828318573
C             0.5967791310        0.8041016085        0.5828318573
C             0.8041016085        0.5967791310        0.9171681427
C             0.1958983915        0.4032208690        0.9171681427
C             0.5967791310        0.1958983915        0.4171681427
C             0.4032208690        0.8041016085        0.4171681427
C             0.0000000000        0.0000000000        0.0000000000
C             0.0000000000        0.0000000000        0.5000000000
C             0.5000000000        0.5000000000        0.2500000000
C             0.5000000000        0.5000000000        0.7500000000
C            -0.0000000000       -0.0000000000        0.9228900936
C            -0.0000000000       -0.0000000000        0.4228900936
C             0.0000000000        0.0000000000        0.0771099064
C             0.0000000000        0.0000000000        0.5771099064
O             0.8722630827        0.7809880407        0.3029487393
O             0.1277369173        0.2190119593        0.3029487393
O             0.2190119593        0.8722630827        0.8029487393
O             0.7809880407        0.1277369173        0.8029487393
O             0.1277369173        0.7809880407        0.6970512607
O             0.8722630827        0.2190119593        0.6970512607
O             0.7809880407        0.8722630827        0.1970512607
O             0.2190119593        0.1277369173        0.1970512607
O             0.0000000000        0.5000000000        0.8135927677
O             0.5000000000        0.0000000000        0.3135927677
O            -0.0000000000        0.5000000000        0.1864072323
O             0.5000000000       -0.0000000000        0.6864072323
O            -0.0000000000        0.5000000000        0.2682590588
O             0.5000000000       -0.0000000000        0.7682590588
O             0.0000000000        0.5000000000        0.7317409412
O             0.5000000000        0.0000000000        0.2317409412

     Writing config-only to output data dir ./out.d/pwscf.save/
     NEW-OLD atomic charge density approx. for the potential

     Check: negative core charge=   -0.000006

     Writing all to output data dir ./out.d/pwscf.save/

     General routines

     Parallel routines

   This run was terminated on:   0:34:15  15Aug2023

   JOB DONE.